c --- [ banner ] -------------------------------------------------------------
c 
c CaDiCaL SAT Solver
c Copyright (c) 2016-2023 A. Biere, M. Fleury, N. Froleyks, K. Fazekas, F. Pollitt
c 
c Version 1.9.5
c g++ (Ubuntu 11.4.0-1ubuntu1~22.04) 11.4.0 -Wall -Wextra -O3 -DNDEBUG -static
c Thu Mar 7 06:16:21 CET 2024 Linux pc101447 6.5.0-17-generic x86_64
c 
c --- [ limit ] --------------------------------------------------------------
c 
c setting time limit to 3600 seconds real time (due to '-t 3600')
c 
c --- [ parsing input ] ------------------------------------------------------
c 
c reading DIMACS file from '/home/oliveras/SAT-comp-2023//e444548857eaf649c4624e3494c89c8e-asconhashv12_opt64_H8_M2-bL4cM6NJ_m4_5_U14.c.cnf'
c opening file to read '/home/oliveras/SAT-comp-2023//e444548857eaf649c4624e3494c89c8e-asconhashv12_opt64_H8_M2-bL4cM6NJ_m4_5_U14.c.cnf'
c found 'p cnf 158617 373265' header
c parsed 373265 clauses in 0.23 seconds process time
c 
c --- [ options ] ------------------------------------------------------------
c 
c   --seed=1                       (different from default '0')
c 
c --- [ solving ] ------------------------------------------------------------
c 
c time measured in process time since initialization
c 
c  seconds  reductions  redundant  irredundant
c         MB    restarts       trail       variables
c          level   conflicts       glue         remaining
c 
c *  0.23 63  0 0   0    0    0  0% 0 372550 97013 61%
c {  0.25 67  0 0   0    0    0  0% 0 372550 97013 61%
c i  0.25 67  1 0   0    1    0  1% 0 372550 97003 61%
c i  0.26 67 39843 0   0  174  138 27% 26 372550 97001 61%
c i  0.26 67 39862 0   0  190  142 27% 24 372550 96999 61%
c i  0.26 67 39871 0   0  198  145 27% 23 372550 96997 61%
c i  0.26 67 39875 0   0  202  147 27% 22 372550 96995 61%
c -  0.32 67 39403 1   4  300  206 26% 22 369136 96995 61%
c i  0.35 69 39605 1   6  734  612 27% 18 369136 96993 61%
c i  0.35 69 39550 1   7  735  612 27% 18 369136 96875 61%
c }  0.39 69 32416 1  18 1001  849 23% 17 369136 96875 61%
c [  0.39 69  0 1  18 1001  849  0% 0 369136 96875 61%
c O  0.41 69 331 1  18 1002  850 25% 15 369136 96875 61%
c -  2.58 89 327 2  18 1241  724 25% 11 368664 96875 61%
c - 14.91 78 205 3  19 2651  364 38% 10 368664 96875 61%
c ] 17.93 78 171 3  19 3001  461 38% 10 368664 96875 61%
c { 17.93 78 32416 3  19 3001  461 37% 17 368664 96875 61%
c F 17.93 78 32350 3  19 3003  463 37% 17 368664 96875 61%
c s 18.07 95 17598 3  31 3883 1174 21% 15 368625 96875 61%
c v 18.37 95 17598 3  31 3883 1174 21% 15 368210 96875 61%
c 
c  seconds     reductions  redundant   irredundant
c         MB       restarts       trail        variables
c            level    conflicts       glue          remaining
c 
c w 18.42 95 17598 3  31 3883 1173 21% 15 368210 96875 61%
c t 18.43 95 17598 3  31 3883 1156 21% 15 368198 96874 61%
c e 18.90 97 17598 3  31 3883  270 21% 15 342984 58011 37%
c s 19.03 106 17598 3  31 3883  255 21% 15 342326 58011 37%
c e 19.10 106 17598 3  31 3883  255 21% 15 342313 58008 37%
c - 19.26 109 13099 4  87 4531  731 16% 16 342313 58008 37%
c 3 19.37 110 11079 4 106 5000 31599 13% 16 342297 58005 37%
c 3 19.40 110 11079 4 106 5000 32273 13% 16 342297 58005 37%
c d 19.47 110 11079 4 106 5000 31880 13% 16 342285 57977 37%
c 2 19.50 110 11079 4 106 5000 31861 13% 16 342285 57977 37%
c p 19.50 110 11079 4 106 5000 31924 13% 16 342285 57977 37%
c # 19.55 110 8321 4 134 6004 32829 10% 15 342285 57977 37%
c - 19.72 111 6938 5 169 6833 2840  2% 15 342285 57977 37%
c } 19.73 111 6706 5 179 7003 2990  2% 15 342285 57977 37%
c [ 19.73 111 171 5 179 7003 2990 63% 10 342285 57977 37%
c - 36.39 111 82 6 181 9594 2082 45% 10 342285 57977 37%
c I 39.05 111 76 6 181 10005 2097 45% 9 342285 57977 37%
c - 57.31 111 51 7 183 12816 1181 42% 9 342285 57977 37%
c s 65.78 111 45 7 184 14128 1162 42% 9 342171 57977 37%
c v 66.30 111 45 7 184 14128 1162 42% 9 342136 57977 37%
c 
c  seconds   reductions   redundant  irredundant
c          MB    restarts        trail       variables
c           level    conflicts       glue         remaining
c 
c w 66.36 111 45 7 184 14128 1162 42% 9 342136 57977 37%
c t 66.37 111 45 7 184 14128 1162 42% 9 342135 57977 37%
c e 66.42 111 45 7 184 14128 1158 42% 9 342111 57964 37%
c s 66.43 111 45 7 184 14128 1149 42% 9 342099 57964 37%
c e 66.48 111 45 7 184 14128 1069 42% 9 342096 57963 37%
c 3 71.93 111 42 7 184 15000 1705 41% 9 342096 57963 37%
c 3 71.94 111 42 7 184 15000 1817 41% 9 342096 57963 37%
c p 72.00 111 42 7 184 15000 1869 41% 9 342096 57961 37%
c ] 72.05 111 42 7 184 15004 1870 41% 9 342096 57961 37%
c { 72.05 111 6706 7 184 15004 1870  2% 15 342096 57961 37%
c B 72.05 111 6702 7 185 15007 1873  2% 15 342096 57961 37%
c - 72.14 111 5197 8 295 16498 2345  2% 15 342096 57961 37%
c - 72.33 111 3219 9 664 20641 5432  2% 15 342096 57961 37%
c W 72.69 111 3115 9 690 21008 5757  2% 15 342096 57961 37%
c - 72.97 111 2279 10 1270 25244 7943  2% 15 342096 57961 37%
c F 73.14 111 1948 10 1737 28009 10404  2% 16 342096 57961 37%
c s 73.29 111 1806 10 2093 29496 11511  2% 16 342085 57961 37%
c w 73.64 111 1806 10 2093 29496 11499  2% 16 342085 57961 37%
c s 73.72 111 1806 10 2093 29496 11458  2% 16 342085 57961 37%
c ^ 73.75 111 1806 10 2093 29496 11458  2% 16 342085 57961 37%
c 
c  seconds     reductions      redundant   irredundant
c          MB       restarts          trail        variables
c            level       conflicts        glue          remaining
c 
c 3 73.83 111 1764 10 2195 30000 12954  2% 16 342085 57961 37%
c p 73.90 111 1764 10 2195 30000 13019  2% 16 342085 57961 37%
c - 73.99 111 1738 11 2258 30307 10157  2% 16 342085 57961 37%
c } 74.04 111 1684 11 2412 31004 10790  2% 17 342085 57961 37%
c [ 74.04 111 42 11 2412 31004 10790 41% 9 342085 57961 37%
c - 104.35 111 71 12 2415 35830 7731 41% 9 342085 57961 37%
c B 105.49 111 71 12 2415 36011 7739 41% 9 342085 57961 37%
c - 141.90 111 52 13 2419 41814 5170 40% 8 342085 57961 37%
c W 162.98 111 45 13 2419 45012 5275 40% 8 342085 57961 37%
c - 182.64 111 40 14 2420 48258 4110 40% 8 342085 57961 37%
c s 193.61 111 38 14 2420 49987 4201 40% 8 342084 57961 37%
c v 194.02 111 38 14 2420 49987 4201 40% 8 342078 57961 37%
c w 194.07 111 38 14 2420 49987 4200 40% 8 342078 57961 37%
c e 194.32 111 38 14 2420 49987 4200 40% 8 342082 57956 37%
c s 194.32 111 38 14 2420 49987 4197 40% 8 342082 57956 37%
c 3 194.53 111 38 14 2420 50001 4589 40% 8 342082 57956 37%
c 3 194.53 111 38 14 2420 50001 4697 40% 8 342082 57956 37%
c p 194.60 111 38 14 2420 50001 4769 40% 8 342082 57956 37%
c O 224.96 111 33 14 2422 55013 5192 39% 8 342082 57956 37%
c - 225.88 111 33 15 2422 55162 4327 39% 8 342082 57956 37%
c 
c  seconds    reductions     redundant  irredundant
c           MB     restarts         trail       variables
c            level      conflicts       glue         remaining
c 
c - 270.58 111 28 16 2427 62526 4117 39% 8 342082 57956 37%
c ] 273.56 111 27 16 2427 63005 4137 39% 8 342082 57956 37%
c { 273.56 111 1684 16 2427 63005 4137  2% 17 342082 57956 37%
c B 273.71 111 1486 16 2888 66014 6878  2% 17 342082 57956 37%
c - 273.97 111 1275 17 3404 70352 10479  2% 17 342082 57956 37%
c 3 274.27 111 1111 17 3978 75002 15565  2% 17 342082 57956 37%
c 3 274.27 111 1111 17 3978 75002 15871  2% 17 342082 57956 37%
c p 274.34 111 1111 17 3978 75002 15930  2% 17 342082 57956 37%
c s 274.43 111 1093 17 4075 75601 16140  2% 17 342079 57956 37%
c v 274.83 111 1093 17 4075 75601 16140  2% 17 342072 57956 37%
c w 274.92 111 1093 17 4075 75601 16084  2% 17 342072 57955 37%
c t 274.92 111 1093 17 4075 75601 16082  2% 17 342071 57955 37%
c e 274.98 111 1093 17 4075 75601 16064  2% 17 342048 57949 37%
c s 274.99 111 1093 17 4075 75601 16009  2% 17 342048 57949 37%
c e 275.04 111 1093 17 4075 75601 16004  2% 17 342045 57948 37%
c W 276.00 111 1027 17 4504 78015 18181  2% 18 342045 57948 37%
c - 276.10 125 1012 18 4606 78636 15080  2% 18 342045 57948 37%
c - 276.93 111 838 19 6429 87380 18932  2% 19 342045 57948 37%
c # 277.34 111 784 19 7345 91017 22215  2% 20 342045 57948 37%
c - 278.04 111 716 20 8660 96584 21786  2% 21 342045 57948 37%
c 
c  seconds     reductions        redundant   irredundant
c           MB       restarts           trail        variables
c             level       conflicts         glue          remaining
c 
c 3 279.04 111 636 20 10475 105003 30228  2% 22 342045 57948 37%
c 3 279.05 111 636 20 10475 105003 30504  2% 22 342045 57948 37%
c p 279.12 111 636 20 10475 105003 30578  2% 22 342045 57948 37%
c B 279.14 111 636 20 10479 105019 30593  2% 22 342045 57948 37%
c - 279.38 126 626 21 10797 106248 24207  2% 22 342045 57948 37%
c s 279.43 126 626 21 10821 106338 23884  2% 22 342045 57948 37%
c v 279.65 126 626 21 10821 106338 23884  2% 22 342043 57948 37%
c w 279.71 126 626 21 10821 106338 23861  2% 22 342043 57948 37%
c s 279.79 126 626 21 10821 106338 23791  2% 22 342043 57948 37%
c ^ 279.82 126 626 21 10821 106338 23791  2% 22 342043 57948 37%
c - 280.89 111 558 22 12611 116372 26187  2% 23 342043 57948 37%
c W 281.94 111 539 22 13106 120020 29505  2% 23 342043 57948 37%
c - 282.81 111 506 23 14406 126958 28514  2% 23 342043 57948 37%
c } 282.81 111 506 23 14413 127005 28556  2% 23 342043 57948 37%
c [ 282.81 111 27 23 14413 127005 28556 39% 8 342043 57948 37%
c B 340.19 111 42 23 14418 136021 29606 39% 8 342043 57948 37%
c - 352.61 111 40 24 14419 138004 19575 39% 8 342043 57948 37%
c i 364.85 111 39 24 14420 139978 19685 39% 8 342043 57945 37%
c 3 365.01 111 39 24 14420 140003 20571 39% 8 342043 57945 37%
c 3 365.02 111 39 24 14420 140003 20910 39% 8 342043 57945 37%
c 
c  seconds    reductions        redundant  irredundant
c           MB      restarts           trail       variables
c            level       conflicts         glue         remaining
c 
c p 365.09 111 39 24 14420 140003 20985 39% 8 342043 57942 37%
c d 365.11 111 39 24 14420 140003 19804 39% 8 341895 57940 37%
c d 365.13 111 39 24 14420 140003 19749 39% 8 341828 57915 37%
c s 378.78 111 37 24 14420 142198 19722 39% 8 341817 57915 37%
c v 379.19 111 37 24 14420 142198 19722 39% 8 341803 57915 37%
c w 379.34 111 37 24 14420 142198 19714 39% 8 341803 57915 37%
c t 379.35 111 37 24 14420 142198 19712 39% 8 341797 57915 37%
c e 379.68 112 37 24 14420 142198 14534 39% 8 355945 50822 32%
c s 379.79 112 37 24 14420 142198 14468 39% 8 355939 50822 32%
c i 421.11 112 33 24 14421 149336 14810 38% 8 355939 50819 32%
c - 422.27 112 33 25 14421 149510 9029 38% 8 355821 50819 32%
c i 438.90 112 31 25 14422 152433 9133 38% 8 355821 50814 32%
c W 443.44 112 31 25 14422 153023 8991 38% 8 355730 50814 32%
c i 458.25 113 29 25 14422 155645 9130 38% 8 355730 50801 32%
c i 460.78 113 29 25 14422 156093 9147 38% 7 355730 50795 32%
c i 462.27 113 29 25 14422 156357 9159 38% 7 355730 50770 32%
c i 462.63 113 29 25 14422 156421 9165 38% 7 355730 50745 32%
c i 462.99 113 29 25 14422 156485 9170 38% 7 355730 50721 32%
c i 463.17 113 29 25 14422 156517 9174 38% 7 355730 50650 32%
c i 463.25 113 29 25 14422 156533 9177 38% 7 355730 50569 32%
c 
c  seconds    reductions       redundant  irredundant
c           MB      restarts          trail       variables
c            level       conflicts        glue         remaining
c 
c i 463.30 113 29 25 14422 156541 9179 38% 7 355730 50509 32%
c i 463.33 113 29 25 14422 156547 9181 38% 7 355730 50114 32%
c ] 463.34 113 29 25 14422 156549 9181 38% 7 355730 31103 20%
c 0 463.34 113 29 25 14422 156549 9181 38% 7 355730 31103 20%
c 
c --- [ result ] -------------------------------------------------------------
c 
s UNSATISFIABLE
c 
c --- [ run-time profiling ] -------------------------------------------------
c 
c process time taken by individual solving procedures
c (percentage relative to process time for solving)
c 
c       457.14   98.71% search
c       444.66   96.02% stable
c         8.27    1.79% unstable
c         5.97    1.29% simplify
c         4.18    0.90% walk
c         2.84    0.61% vivify
c         1.49    0.32% elim
c         0.54    0.12% subsume
c         0.43    0.09% ternary
c         0.23    0.05% parse
c         0.05    0.01% probe
c         0.02    0.00% lucky
c   =================================
c       463.11   99.95% solve
c 
c last line shows process time for solving
c (percentage relative to total process time)
c 
c --- [ statistics ] ---------------------------------------------------------
c 
c chronological:             41921        26.78 %  of conflicts
c conflicts:                156549       338.04    per second
c decisions:               3941748      8511.50    per second
c eliminated:                45969        28.98 %  of all variables
c fixed:                     21846        13.77 %  of all variables
c learned:                  149101        95.24 %  per conflict
c learned_lits:           26008910       100.00 %  learned literals
c minimized:                     0         0.00 %  learned literals
c shrunken:               22402250        86.13 %  learned literals
c minishrunken:             445395         1.71 %  learned literals
c otfs:                       7073         4.52 %  of conflict
c propagations:         1590748127         3.43 M  per second
c reduced:                   63369        40.48 %  per conflict
c rephased:                     17      9208.76    interval
c restarts:                  14422        10.85    interval
c stabilizing:                   4        45.70 %  of conflicts
c substituted:                  60         0.04 %  of all variables
c subsumed:                  72086         7.89 %  of all clauses
c strengthened:              12819         1.40 %  of all clauses
c ternary:                   37053         1.39 %  of resolved
c trail reuses:                  0         0.00 %  of incremental calls
c vivified:                   2349         0.26 %  of all clauses
c walked:                        5     31309.80    interval
c weakened:                 164727         2.77    average size
c 
c seconds are measured in process time for solving
c 
c --- [ resources ] ----------------------------------------------------------
c 
c total process time since initialization:       463.34    seconds
c total real time since initialization:          463.42    seconds
c maximum resident set size of process:          125.95    MB
c 
c --- [ shutting down ] ------------------------------------------------------
c 
c exit 20
